
  24    0


   0  13 2 3 4 5 6 7 8 18 19 20 21 22 23 
   2   6 15 14 13 12 11 10 
  10   4 17 13 10 9 
   8   4 15 13 10 9 
   5   3 14 12 10 
   6   2 16 9 
   4   2 12 11 
   6   2 11 9 
   7   1 24
   4   1 24
   6   1 24
   7   1 24
  10   1 24
   4   1 24
   1   1 24
   6   1 24
   5   1 24
   6   1 24
   1   1 24
   8   1 24
   2   1 24
   4   1 24
  10   1 24
   0   0 
